amountOfEmployees = 75;
horizonLength = 7;
amountOfShifts = 4;

shiftsPerDay = [|32,6,0,0,
|33,2,4,0,
|1,5,0,0,
|2,0,11,0,
|1,6,0,0,
|35,5,2,0,
|32,6,0,0,
|];

preferences = array3d(1..75,1..7,1..4,[2,2,2,2,3,1,1,1,2,2,2,2,2,2,2,2,3,1,1,1,3,1,1,1,3,1,1,1,3,3,3,3,3,1,1,1,3,3,3,3,3,3,3,3,3,1,1,1,3,1,1,1,3,1,1,1,1,4,4,4,2,3,3,3,1,4,4,4,1,4,4,4,2,3,3,3,2,3,3,3,2,3,3,3,1,4,4,4,1,2,2,2,1,4,4,4,1,4,4,4,1,2,2,2,1,2,2,2,1,2,2,2,2,1,1,1,3,3,3,3,2,1,1,1,2,1,1,1,3,3,3,3,3,3,3,3,3,3,3,3,3,1,1,1,3,4,4,4,3,1,1,1,3,1,1,1,3,4,4,4,3,4,4,4,3,4,4,4,2,2,2,2,3,1,1,1,2,2,2,2,2,2,2,2,3,1,1,1,3,1,1,1,3,1,1,1,1,2,2,2,3,2,2,2,1,2,2,2,1,2,2,2,3,2,2,2,3,2,2,2,3,2,2,2,1,3,3,3,3,2,2,2,1,3,3,3,1,3,3,3,3,2,2,2,3,2,2,2,3,2,2,2,1,3,3,3,3,2,2,2,1,3,3,3,1,3,3,3,3,2,2,2,3,2,2,2,3,2,2,2,2,2,2,2,4,1,1,1,2,2,2,2,2,2,2,2,4,1,1,1,4,1,1,1,4,1,1,1,1,3,3,3,2,1,1,1,1,3,3,3,1,3,3,3,2,1,1,1,2,1,1,1,2,1,1,1,2,1,1,1,3,1,1,1,2,1,1,1,2,1,1,1,3,1,1,1,3,1,1,1,3,1,1,1,1,1,1,1,1,3,3,3,1,1,1,1,1,1,1,1,1,3,3,3,1,3,3,3,1,3,3,3,1,1,1,1,2,3,3,3,1,1,1,1,1,1,1,1,2,3,3,3,2,3,3,3,2,3,3,3,1,2,2,2,3,3,3,3,1,2,2,2,1,2,2,2,3,3,3,3,3,3,3,3,3,3,3,3,1,1,1,1,2,3,3,3,1,1,1,1,1,1,1,1,2,3,3,3,2,3,3,3,2,3,3,3,3,2,2,2,3,1,1,1,3,2,2,2,3,2,2,2,3,1,1,1,3,1,1,1,3,1,1,1,1,2,2,2,1,3,3,3,1,2,2,2,1,2,2,2,1,3,3,3,1,3,3,3,1,3,3,3,3,4,4,4,1,2,2,2,3,4,4,4,3,4,4,4,1,2,2,2,1,2,2,2,1,2,2,2,2,2,2,2,3,1,1,1,2,2,2,2,2,2,2,2,3,1,1,1,3,1,1,1,3,1,1,1,1,2,2,2,1,1,1,1,1,2,2,2,1,2,2,2,1,1,1,1,1,1,1,1,1,1,1,1,1,2,2,2,3,2,2,2,1,2,2,2,1,2,2,2,3,2,2,2,3,2,2,2,3,2,2,2,3,1,1,1,1,1,1,1,3,1,1,1,3,1,1,1,1,1,1,1,1,1,1,1,1,1,1,1,1,2,2,2,3,1,1,1,1,2,2,2,1,2,2,2,3,1,1,1,3,1,1,1,3,1,1,1,2,3,3,3,3,2,2,2,2,3,3,3,2,3,3,3,3,2,2,2,3,2,2,2,3,2,2,2,3,2,2,2,3,4,4,4,3,2,2,2,3,2,2,2,3,4,4,4,3,4,4,4,3,4,4,4,4,3,3,3,1,3,3,3,4,3,3,3,4,3,3,3,1,3,3,3,1,3,3,3,1,3,3,3,2,1,1,1,2,3,3,3,2,1,1,1,2,1,1,1,2,3,3,3,2,3,3,3,2,3,3,3,1,2,2,2,1,2,2,2,1,2,2,2,1,2,2,2,1,2,2,2,1,2,2,2,1,2,2,2,3,3,3,3,1,1,1,1,3,3,3,3,3,3,3,3,1,1,1,1,1,1,1,1,1,1,1,1,1,1,1,1,2,3,3,3,1,1,1,1,1,1,1,1,2,3,3,3,2,3,3,3,2,3,3,3,3,3,3,3,2,3,3,3,3,3,3,3,3,3,3,3,2,3,3,3,2,3,3,3,2,3,3,3,2,1,1,1,1,3,3,3,2,1,1,1,2,1,1,1,1,3,3,3,1,3,3,3,1,3,3,3,2,1,1,1,3,2,2,2,2,1,1,1,2,1,1,1,3,2,2,2,3,2,2,2,3,2,2,2,3,1,1,1,2,3,3,3,3,1,1,1,3,1,1,1,2,3,3,3,2,3,3,3,2,3,3,3,2,3,3,3,1,4,4,4,2,3,3,3,2,3,3,3,1,4,4,4,1,4,4,4,1,4,4,4,4,1,1,1,3,2,2,2,4,1,1,1,4,1,1,1,3,2,2,2,3,2,2,2,3,2,2,2,4,3,3,3,2,3,3,3,4,3,3,3,4,3,3,3,2,3,3,3,2,3,3,3,2,3,3,3,1,1,1,1,4,3,3,3,1,1,1,1,1,1,1,1,4,3,3,3,4,3,3,3,4,3,3,3,2,1,1,1,2,3,3,3,2,1,1,1,2,1,1,1,2,3,3,3,2,3,3,3,2,3,3,3,3,1,1,1,2,2,2,2,3,1,1,1,3,1,1,1,2,2,2,2,2,2,2,2,2,2,2,2,4,2,2,2,2,2,2,2,4,2,2,2,4,2,2,2,2,2,2,2,2,2,2,2,2,2,2,2,2,1,1,1,1,3,3,3,2,1,1,1,2,1,1,1,1,3,3,3,1,3,3,3,1,3,3,3,2,1,1,1,2,2,2,2,2,1,1,1,2,1,1,1,2,2,2,2,2,2,2,2,2,2,2,2,3,1,1,1,3,2,2,2,3,1,1,1,3,1,1,1,3,2,2,2,3,2,2,2,3,2,2,2,1,3,3,3,1,4,4,4,1,3,3,3,1,3,3,3,1,4,4,4,1,4,4,4,1,4,4,4,2,4,4,4,4,2,2,2,2,4,4,4,2,4,4,4,4,2,2,2,4,2,2,2,4,2,2,2,2,3,3,3,1,2,2,2,2,3,3,3,2,3,3,3,1,2,2,2,1,2,2,2,1,2,2,2,3,4,4,4,4,3,3,3,3,4,4,4,3,4,4,4,4,3,3,3,4,3,3,3,4,3,3,3,1,4,4,4,4,1,1,1,1,4,4,4,1,4,4,4,4,1,1,1,4,1,1,1,4,1,1,1,2,2,2,2,1,1,1,1,2,2,2,2,2,2,2,2,1,1,1,1,1,1,1,1,1,1,1,1,1,3,3,3,1,1,1,1,1,3,3,3,1,3,3,3,1,1,1,1,1,1,1,1,1,1,1,1,3,1,1,1,3,3,3,3,3,1,1,1,3,1,1,1,3,3,3,3,3,3,3,3,3,3,3,3,3,2,2,2,1,1,1,1,3,2,2,2,3,2,2,2,1,1,1,1,1,1,1,1,1,1,1,1,3,3,3,3,1,1,1,1,3,3,3,3,3,3,3,3,1,1,1,1,1,1,1,1,1,1,1,1,1,1,1,1,1,2,2,2,1,1,1,1,1,1,1,1,1,2,2,2,1,2,2,2,1,2,2,2,2,3,3,3,2,2,2,2,2,3,3,3,2,3,3,3,2,2,2,2,2,2,2,2,2,2,2,2,3,1,1,1,1,1,1,1,3,1,1,1,3,1,1,1,1,1,1,1,1,1,1,1,1,1,1,1,3,3,3,3,1,2,2,2,3,3,3,3,3,3,3,3,1,2,2,2,1,2,2,2,1,2,2,2,3,2,2,2,4,1,1,1,3,2,2,2,3,2,2,2,4,1,1,1,4,1,1,1,4,1,1,1,1,1,1,1,2,2,2,2,1,1,1,1,1,1,1,1,2,2,2,2,2,2,2,2,2,2,2,2,2,1,1,1,2,1,1,1,2,1,1,1,2,1,1,1,2,1,1,1,2,1,1,1,2,1,1,1,3,2,2,2,3,1,1,1,3,2,2,2,3,2,2,2,3,1,1,1,3,1,1,1,3,1,1,1,1,3,3,3,1,4,4,4,1,3,3,3,1,3,3,3,1,4,4,4,1,4,4,4,1,4,4,4,4,2,2,2,2,2,2,2,4,2,2,2,4,2,2,2,2,2,2,2,2,2,2,2,2,2,2,2,3,2,2,2,2,2,2,2,3,2,2,2,3,2,2,2,2,2,2,2,2,2,2,2,2,2,2,2,3,2,2,2,1,2,2,2,3,2,2,2,3,2,2,2,1,2,2,2,1,2,2,2,1,2,2,2,2,3,3,3,2,1,1,1,2,3,3,3,2,3,3,3,2,1,1,1,2,1,1,1,2,1,1,1,4,1,1,1,3,3,3,3,4,1,1,1,4,1,1,1,3,3,3,3,3,3,3,3,3,3,3,3,2,1,1,1,3,1,1,1,2,1,1,1,2,1,1,1,3,1,1,1,3,1,1,1,3,1,1,1,2,3,3,3,2,1,1,1,2,3,3,3,2,3,3,3,2,1,1,1,2,1,1,1,2,1,1,1,3,2,2,2,1,2,2,2,3,2,2,2,3,2,2,2,1,2,2,2,1,2,2,2,1,2,2,2,3,3,3,3,3,4,4,4,3,3,3,3,3,3,3,3,3,4,4,4,3,4,4,4,3,4,4,4,3,3,3,3,3,2,2,2,3,3,3,3,3,3,3,3,3,2,2,2,3,2,2,2,3,2,2,2,]);

minShifts = 5;
maxShifts = 5;
minConsecShifts = 1;
maxConsecShifts = 7;

minConsecSameShifts = [1,1,1,1];
maxConsecSameShifts = [7,7,7,7];

minPerShifts = [1,1,1,0];
maxPerShifts = [3,3,2,7];